(declare-const a Real)
(declare-const b Real)
(declare-const c Real)
(assert (< 0 a))
(assert (< 0 b))
(assert (< 0 c))
(assert (not (<= (+ (pow (+ a b) -1) (pow (+ a c) -1) (* (/ 1 4) (pow b -1)) (* (/ 1 4) (pow c -1))) (+ (* (/ 1 2) (pow a -1)) (* (/ 1 2) (pow b -1)) (* (/ 1 2) (pow c -1))))))
(check-sat)
(get-model)
(exit)